147
100
4
52
25
60
47
25
63
22
13
35
71
75
1
41
18
29
21
18
46
31
17
23
40
59
22
8
41
71
54
22
15
61
21
65
9
25
64
61
3
26
1
20
26
2
70
38
63
74
18
21
8
57
48
12
11
69
44
3
60
21
10
74
6
32
11
74
45
12
1
13
26
41
39
46
21
35
4
21
17
19
31
30
17
2
30
16
39
11
33
53
28
25
9
63
47
20
68
15
72
38
50
37
29
32
5
10
8
12
14
27
33
45
4
11
7
11
56
13
21
40
19
15
56
6
75
74
18
56
1
2
33
32
7
48
64
14
54
34
15
7
31
39
19
31
4
9
8
